n = 50;
C = 245;
w = [43,18,82,207,210,293,390,321,462,332,305,93,445,239,478,72,282,277,196,15,434,368,218,216,186,405,473,406,256,395,275,90,109,461,231,211,370,388,269,68,414,77,176,93,292,144,137,96,121,119];
p = [225,100,420,1045,1060,1475,1960,1615,2320,1670,1535,475,2235,1205,2400,370,1420,1395,990,85,2180,1850,1100,1090,940,2035,2375,2040,1290,1985,1385,460,555,2315,1165,1065,1860,1950,1355,350,2080,395,890,475,1470,730,695,490,615,605];
